\Generated by Cardinal Operations

Maximize
   19.99 x_1 + 29.99 x_2 + 44.99 x_3 + 29.99 x_4 + 79.98999999999999 x_5 
   + 64.98999999999999 x_6 + 179.99 x_7 + 179.99 x_8 + 49.99 x_9 
   + 249.99 x_10 + 49.99 x_11 + 23 x_12 + 59.99 x_13 + 199 x_14 + 599 x_15 
   + 549 x_16 + 249.99 x_17 + 1199.99 x_18 + 2399 x_19 + 179 x_20 
   + 399.99 x_21 + 599.99 x_22 + 16.99 x_23 + 199.99 x_24 + 32.5 x_25 
   + 15 x_26 + 599.99 x_27 + 299.99 x_28 + 299 x_29 + 129 x_30 
   + 299.99 x_31 + 149.99 x_32 + 699.99 x_33 + 399.99 x_34 + 499.95 x_35 
   + 199.95 x_36 + 299.95 x_37 + 299.99 x_38 + 29.99 x_39 + 3899.99 x_40 
   + 749.99 x_41 + 79 x_42 + 14.99 x_43 + 49.99 x_44 + 129.99 x_45 
   + 100 x_46 + 29.5 x_47 + 52 x_48 + 59.99 x_49 + 49.99 x_50 + 199.95 x_51 
   + 199.99 x_52 + 159.99 x_53 + 899.99 x_54 + 52 x_55 + 78 x_56 
   + 25.99 x_57 + 499.99 x_58 + 399.99 x_59 + 499.99 x_60 + 399.99 x_61 
   + 28 x_62 + 105 x_63 + 219.99 x_64 + 36 x_65 + 34 x_66 + 129.99 x_67 
   + 99.95 x_68 + 149.95 x_69 + 229.95 x_70 + 12.99 x_71 + 24 x_72 
   + 59.99 x_73 + 34.99 x_74 + 19.99 x_75 + 49.99 x_76 + 299.99 x_77 
   + 999.99 x_78 + 299.99 x_79 + 499.99 x_80 + 59 x_81 + 16 x_82 + 18 x_83 
   + 399.99 x_84 + 449.99 x_85 + 22.99 x_86 + 229.99 x_87 + 169 x_88 
   + 899.99 x_89 + 649.99 x_90 + 39.99 x_91 + 1599.99 x_92 
   + 89.98999999999999 x_93 + 9.99 x_94 + 24.99 x_95 + 32.95 x_96 
   + 39.95 x_97 + 349 x_98 + 89.98999999999999 x_99 + 179.99 x_100 
   + 139.99 x_101 + 99.95 x_102 + 139.99 x_103 + 189.99 x_104 
   + 79.98999999999999 x_105 + 82 x_106 + 129.99 x_107 + 499.99 x_108 
   + 379.99 x_109 + 29 x_110 + 39.99 x_111 + 1299.99 x_112 + 190 x_113 
   + 102 x_114 + 25 x_115 + 69.98999999999999 x_116 + 59.99 x_117 
   + 98 x_118 + 89.98999999999999 x_119 
Subject To
 inventory_constraint: x_1 <= 20
 x_2 <= 30
 x_3 <= 20
 x_4 <= 20
 x_5 <= 20
 x_6 <= 20
 x_7 <= 10
 x_8 <= 10
 x_9 <= 20
 x_10 <= 10
 x_11 <= 20
 x_12 <= 10
 x_13 <= 20
 x_14 <= 10
 x_15 <= 10
 x_16 <= 10
 x_17 <= 10
 x_18 <= 10
 x_19 <= 10
 x_20 <= 10
 x_21 <= 20
 x_22 <= 10
 x_23 <= 20
 x_24 <= 20
 x_25 <= 20
 x_26 <= 10
 x_27 <= 10
 x_28 <= 10
 x_29 <= 10
 x_30 <= 10
 x_31 <= 20
 x_32 <= 10
 x_33 <= 10
 x_34 <= 10
 x_35 <= 10
 x_36 <= 10
 x_37 <= 10
 x_38 <= 10
 x_39 <= 30
 x_40 <= 10
 x_41 <= 10
 x_42 <= 10
 x_43 <= 10
 x_44 <= 20
 x_45 <= 10
 x_46 <= 10
 x_47 <= 10
 x_48 <= 10
 x_49 <= 20
 x_50 <= 10
 x_51 <= 10
 x_52 <= 10
 x_53 <= 10
 x_54 <= 10
 x_55 <= 10
 x_56 <= 10
 x_57 <= 20
 x_58 <= 10
 x_59 <= 20
 x_60 <= 10
 x_61 <= 10
 x_62 <= 20
 x_63 <= 10
 x_64 <= 20
 x_65 <= 10
 x_66 <= 10
 x_67 <= 10
 x_68 <= 10
 x_69 <= 10
 x_70 <= 20
 x_71 <= 30
 x_72 <= 10
 x_73 <= 20
 x_74 <= 20
 x_75 <= 30
 x_76 <= 20
 x_77 <= 10
 x_78 <= 10
 x_79 <= 10
 x_80 <= 20
 x_81 <= 10
 x_82 <= 10
 x_83 <= 10
 x_84 <= 20
 x_85 <= 10
 x_86 <= 10
 x_87 <= 10
 x_88 <= 10
 x_89 <= 10
 x_90 <= 10
 x_91 <= 20
 x_92 <= 10
 x_93 <= 10
 x_94 <= 50
 x_95 <= 20
 x_96 <= 20
 x_97 <= 20
 x_98 <= 10
 x_99 <= 20
 x_100 <= 10
 x_101 <= 10
 x_102 <= 10
 x_103 <= 10
 x_104 <= 20
 x_105 <= 10
 x_106 <= 10
 x_107 <= 10
 x_108 <= 10
 x_109 <= 10
 x_110 <= 10
 x_111 <= 10
 x_112 <= 10
 x_113 <= 10
 x_114 <= 10
 x_115 <= 10
 x_116 <= 20
 x_117 <= 20
 x_118 <= 10
 x_119 <= 10
 demand_constraint: x_1 <= 6
 x_2 <= 7
 x_3 <= 5
 x_4 <= 4
 x_5 <= 6
 x_6 <= 6
 x_7 <= 3
 x_8 <= 3
 x_9 <= 5
 x_10 <= 2
 x_11 <= 5
 x_12 <= 3
 x_13 <= 6
 x_14 <= 3
 x_15 <= 2
 x_16 <= 2
 x_17 <= 3
 x_18 <= 2
 x_19 <= 2
 x_20 <= 3
 x_21 <= 4
 x_22 <= 3
 x_23 <= 6
 x_24 <= 5
 x_25 <= 6
 x_26 <= 2
 x_27 <= 3
 x_28 <= 2
 x_29 <= 2
 x_30 <= 2
 x_31 <= 5
 x_32 <= 3
 x_33 <= 2
 x_34 <= 2
 x_35 <= 2
 x_36 <= 2
 x_37 <= 3
 x_38 <= 2
 x_39 <= 7
 x_40 <= 2
 x_41 <= 2
 x_42 <= 2
 x_43 <= 3
 x_44 <= 5
 x_45 <= 2
 x_46 <= 2
 x_47 <= 2
 x_48 <= 2
 x_49 <= 6
 x_50 <= 3
 x_51 <= 3
 x_52 <= 2
 x_53 <= 2
 x_54 <= 2
 x_55 <= 2
 x_56 <= 2
 x_57 <= 6
 x_58 <= 2
 x_59 <= 5
 x_60 <= 2
 x_61 <= 2
 x_62 <= 4
 x_63 <= 2
 x_64 <= 5
 x_65 <= 2
 x_66 <= 3
 x_67 <= 3
 x_68 <= 3
 x_69 <= 3
 x_70 <= 5
 x_71 <= 7
 x_72 <= 2
 x_73 <= 5
 x_74 <= 6
 x_75 <= 8
 x_76 <= 5
 x_77 <= 3
 x_78 <= 2
 x_79 <= 2
 x_80 <= 5
 x_81 <= 2
 x_82 <= 3
 x_83 <= 2
 x_84 <= 4
 x_85 <= 2
 x_86 <= 3
 x_87 <= 3
 x_88 <= 2
 x_89 <= 2
 x_90 <= 2
 x_91 <= 5
 x_92 <= 2
 x_93 <= 2
 x_94 <= 15
 x_95 <= 4
 x_96 <= 5
 x_97 <= 6
 x_98 <= 2
 x_99 <= 4
 x_100 <= 2
 x_101 <= 3
 x_102 <= 2
 x_103 <= 2
 x_104 <= 5
 x_105 <= 3
 x_106 <= 2
 x_107 <= 3
 x_108 <= 2
 x_109 <= 2
 x_110 <= 3
 x_111 <= 3
 x_112 <= 3
 x_113 <= 2
 x_114 <= 2
 x_115 <= 2
 x_116 <= 5
 x_117 <= 5
 x_118 <= 3
 x_119 <= 3
Generals
 x_1  x_2  x_3  x_4  x_5  x_6  x_7  x_8  x_9  x_10  x_11  x_12  x_13  x_14  
 x_15  x_16  x_17  x_18  x_19  x_20  x_21  x_22  x_23  x_24  x_25  x_26  
 x_27  x_28  x_29  x_30  x_31  x_32  x_33  x_34  x_35  x_36  x_37  x_38  
 x_39  x_40  x_41  x_42  x_43  x_44  x_45  x_46  x_47  x_48  x_49  x_50  
 x_51  x_52  x_53  x_54  x_55  x_56  x_57  x_58  x_59  x_60  x_61  x_62  
 x_63  x_64  x_65  x_66  x_67  x_68  x_69  x_70  x_71  x_72  x_73  x_74  
 x_75  x_76  x_77  x_78  x_79  x_80  x_81  x_82  x_83  x_84  x_85  x_86  
 x_87  x_88  x_89  x_90  x_91  x_92  x_93  x_94  x_95  x_96  x_97  x_98  
 x_99  x_100  x_101  x_102  x_103  x_104  x_105  x_106  x_107  x_108  
 x_109  x_110  x_111  x_112  x_113  x_114  x_115  x_116  x_117  x_118  
 x_119  
END

